c generated by sgen
p cnf 49 108
-2 -3 -4 0
-1 -3 -4 0
-1 -2 -4 0
-1 -2 -3 0
-6 -7 -8 0
-5 -7 -8 0
-5 -6 -8 0
-5 -6 -7 0
-10 -11 -12 0
-9 -11 -12 0
-9 -10 -12 0
-9 -10 -11 0
-14 -15 -16 0
-13 -15 -16 0
-13 -14 -16 0
-13 -14 -15 0
-18 -19 -20 0
-17 -19 -20 0
-17 -18 -20 0
-17 -18 -19 0
-22 -23 -24 0
-21 -23 -24 0
-21 -22 -24 0
-21 -22 -23 0
-26 -27 -28 0
-25 -27 -28 0
-25 -26 -28 0
-25 -26 -27 0
-30 -31 -32 0
-29 -31 -32 0
-29 -30 -32 0
-29 -30 -31 0
-34 -35 -36 0
-33 -35 -36 0
-33 -34 -36 0
-33 -34 -35 0
-38 -39 -40 0
-37 -39 -40 0
-37 -38 -40 0
-37 -38 -39 0
-42 -43 -44 0
-41 -43 -44 0
-41 -42 -44 0
-41 -42 -43 0
-45 -46 -47 0
-45 -46 -48 0
-45 -46 -49 0
-45 -47 -48 0
-45 -47 -49 0
-45 -48 -49 0
-46 -47 -48 0
-46 -47 -49 0
-46 -48 -49 0
-47 -48 -49 0
13 29 2 0
34 29 2 0
34 13 2 0
34 13 29 0
12 8 35 0
28 8 35 0
28 12 35 0
28 12 8 0
47 44 36 0
22 44 36 0
22 47 36 0
22 47 44 0
33 15 18 0
40 15 18 0
40 33 18 0
40 33 15 0
21 4 7 0
19 4 7 0
19 21 7 0
19 21 4 0
16 27 5 0
41 27 5 0
41 16 5 0
41 16 27 0
42 49 17 0
32 49 17 0
32 42 17 0
32 42 49 0
11 39 3 0
43 39 3 0
43 11 3 0
43 11 39 0
30 6 37 0
45 6 37 0
45 30 37 0
45 30 6 0
20 26 1 0
48 26 1 0
48 20 1 0
48 20 26 0
14 24 46 0
10 24 46 0
10 14 46 0
10 14 24 0
31 38 25 0
31 38 23 0
31 38 9 0
31 25 23 0
31 25 9 0
31 23 9 0
38 25 23 0
38 25 9 0
38 23 9 0
25 23 9 0
